x_1
x_2
x_3
x_4
x_5
x_6
x_7
x_8
x_9
x_10
x_11
x_12
x_13
x_14
x_15
x_16
x_17
x_18
x_19
x_20
x_3 x_1
x_4 x_1
x_4 x_2
x_4 x_3
x_5 x_1
x_5 x_2
x_5 x_3
x_5 x_4
x_6 x_1
x_6 x_2
x_7 x_2
x_7 x_3
x_7 x_4
x_7 x_5
x_8 x_1
x_8 x_5
x_8 x_6
x_8 x_7
x_9 x_1
x_9 x_3
x_9 x_6
x_10 x_3
x_10 x_6
x_10 x_7
x_11 x_4
x_11 x_7
x_11 x_10
x_12 x_2
x_12 x_3
x_12 x_7
x_12 x_8
x_12 x_9
x_12 x_11
x_13 x_1
x_13 x_2
x_13 x_3
x_13 x_5
x_13 x_8
x_13 x_10
x_13 x_11
x_14 x_2
x_14 x_5
x_14 x_8
x_14 x_9
x_14 x_10
x_14 x_13
x_15 x_2
x_15 x_3
x_15 x_4
x_15 x_7
x_15 x_8
x_16 x_3
x_16 x_4
x_16 x_6
x_16 x_10
x_16 x_14
x_16 x_15
x_17 x_2
x_17 x_6
x_17 x_8
x_17 x_9
x_17 x_13
x_17 x_14
x_18 x_1
x_18 x_3
x_18 x_4
x_18 x_6
x_18 x_7
x_18 x_9
x_18 x_13
x_18 x_14
x_18 x_15
x_19 x_2
x_19 x_4
x_19 x_5
x_19 x_7
x_19 x_9
x_19 x_10
x_19 x_12
x_19 x_13
x_19 x_14
x_19 x_15
x_19 x_16
x_19 x_18
x_20 x_1
x_20 x_3
x_20 x_4
x_20 x_5
x_20 x_8
x_20 x_9
x_20 x_10
x_20 x_11
x_20 x_12
x_20 x_13
x_20 x_19
